
Gurobi 11.0.0 (win64) logging started Thu May 16 08:59:17 2024

Set parameter LogFile to value "./Results/StripPacking-SequencePairRuns/Logs/SBspL-010-StripPacking-10.log"
Set parameter TimeLimit to value 10800
Set parameter Cuts to value 0
Set parameter Presolve to value 1
Set parameter Heuristics to value 0
Set parameter LPWarmStart to value 2
Gurobi Optimizer version 11.0.0 build v11.0.0rc2 (win64 - Windows 10.0 (19045.2))

CPU model: Intel(R) Core(TM) i9-10980XE CPU @ 3.00GHz, instruction set [SSE2|AVX|AVX2|AVX512]
Thread count: 18 physical cores, 36 logical processors, using up to 18 threads

Optimize a model with 1990 rows, 111 columns and 6140 nonzeros
Model fingerprint: 0x71d8855c
Variable types: 21 continuous, 90 integer (90 binary)
Coefficient statistics:
  Matrix range     [1e+00, 1e+04]
  Objective range  [1e+00, 1e+00]
  Bounds range     [1e+00, 1e+04]
  RHS range        [1e+00, 1e+04]

User MIP start did not produce a new incumbent solution

Presolve removed 90 rows and 0 columns
Presolve time: 0.00s
Presolved: 1900 rows, 111 columns, 5870 nonzeros
Variable types: 21 continuous, 90 integer (90 binary)

Root relaxation: objective 3.500000e+01, 250 iterations, 0.00 seconds (0.01 work units)
Another try with MIP start

    Nodes    |    Current Node    |     Objective Bounds      |     Work
 Expl Unexpl |  Obj  Depth IntInf | Incumbent    BestBd   Gap | It/Node Time

H    0     0                      70.0000000   35.00000  50.0%     -    0s
     0     0   35.00000    0   74   70.00000   35.00000  50.0%     -    0s
     0     0   35.00000    0   57   70.00000   35.00000  50.0%     -    0s
     0     2   35.00000    0   57   70.00000   35.00000  50.0%     -    0s
*  164   145              10      65.0000000   35.00000  46.2%  38.0    0s
*  179   157              12      64.0000000   35.00000  45.3%  36.1    0s
*  255   183              14      59.0000000   35.00000  40.7%  31.6    0s
*  456   175              10      50.0000000   41.00000  18.0%  23.3    0s

Explored 736 nodes (13592 simplex iterations) in 0.28 seconds (0.37 work units)
Thread count was 18 (of 36 available processors)

Solution count 5: 50 59 64 ... 70

Optimal solution found (tolerance 1.00e-04)
Best objective 5.000000000000e+01, best bound 5.000000000000e+01, gap 0.0000%

Gurobi 11.0.0 (win64) logging started Thu May 16 09:00:11 2024

Set parameter LogFile to value "./Results/StripPacking-SequencePairRuns/Logs/SBspL-010-StripPacking-10.log"
Set parameter TimeLimit to value 10800
Set parameter Cuts to value 0
Set parameter Presolve to value 1
Set parameter Heuristics to value 0
Set parameter LPWarmStart to value 2
Gurobi Optimizer version 11.0.0 build v11.0.0rc2 (win64 - Windows 10.0 (19045.2))

CPU model: Intel(R) Core(TM) i9-10980XE CPU @ 3.00GHz, instruction set [SSE2|AVX|AVX2|AVX512]
Thread count: 18 physical cores, 36 logical processors, using up to 18 threads

Optimize a model with 1990 rows, 111 columns and 6140 nonzeros
Model fingerprint: 0x71d8855c
Variable types: 21 continuous, 90 integer (90 binary)
Coefficient statistics:
  Matrix range     [1e+00, 1e+04]
  Objective range  [1e+00, 1e+00]
  Bounds range     [1e+00, 1e+04]
  RHS range        [1e+00, 1e+04]

User MIP start did not produce a new incumbent solution

Presolve removed 90 rows and 0 columns
Presolve time: 0.00s
Presolved: 1900 rows, 111 columns, 5870 nonzeros
Variable types: 21 continuous, 90 integer (90 binary)

Root relaxation: objective 3.500000e+01, 250 iterations, 0.02 seconds (0.01 work units)
Another try with MIP start

    Nodes    |    Current Node    |     Objective Bounds      |     Work
 Expl Unexpl |  Obj  Depth IntInf | Incumbent    BestBd   Gap | It/Node Time

H    0     0                      70.0000000   35.00000  50.0%     -    0s
     0     0   35.00000    0   74   70.00000   35.00000  50.0%     -    0s
     0     0   35.00000    0   57   70.00000   35.00000  50.0%     -    0s
     0     2   35.00000    0   57   70.00000   35.00000  50.0%     -    0s
*  164   145              10      65.0000000   35.00000  46.2%  38.0    0s
*  179   157              12      64.0000000   35.00000  45.3%  36.1    0s
*  255   183              14      59.0000000   35.00000  40.7%  31.6    0s
*  456   175              10      50.0000000   41.00000  18.0%  23.3    0s

Explored 736 nodes (13592 simplex iterations) in 0.25 seconds (0.37 work units)
Thread count was 18 (of 36 available processors)

Solution count 5: 50 59 64 ... 70

Optimal solution found (tolerance 1.00e-04)
Best objective 5.000000000000e+01, best bound 5.000000000000e+01, gap 0.0000%

Gurobi 11.0.0 (win64) logging started Thu May 16 09:01:13 2024

Set parameter LogFile to value "./Results/StripPacking-SequencePairRuns/Logs/SBspL-010-StripPacking-10.log"
Set parameter TimeLimit to value 10800
Set parameter Cuts to value 0
Set parameter Presolve to value 1
Set parameter Heuristics to value 0
Set parameter LPWarmStart to value 2
Gurobi Optimizer version 11.0.0 build v11.0.0rc2 (win64 - Windows 10.0 (19045.2))

CPU model: Intel(R) Core(TM) i9-10980XE CPU @ 3.00GHz, instruction set [SSE2|AVX|AVX2|AVX512]
Thread count: 18 physical cores, 36 logical processors, using up to 18 threads

Optimize a model with 1990 rows, 111 columns and 6140 nonzeros
Model fingerprint: 0x71d8855c
Variable types: 21 continuous, 90 integer (90 binary)
Coefficient statistics:
  Matrix range     [1e+00, 1e+04]
  Objective range  [1e+00, 1e+00]
  Bounds range     [1e+00, 1e+04]
  RHS range        [1e+00, 1e+04]

User MIP start did not produce a new incumbent solution

Presolve removed 90 rows and 0 columns
Presolve time: 0.02s
Presolved: 1900 rows, 111 columns, 5870 nonzeros
Variable types: 21 continuous, 90 integer (90 binary)

Root relaxation: objective 3.500000e+01, 250 iterations, 0.00 seconds (0.01 work units)
Another try with MIP start

    Nodes    |    Current Node    |     Objective Bounds      |     Work
 Expl Unexpl |  Obj  Depth IntInf | Incumbent    BestBd   Gap | It/Node Time

H    0     0                      70.0000000   35.00000  50.0%     -    0s
     0     0   35.00000    0   74   70.00000   35.00000  50.0%     -    0s
     0     0   35.00000    0   57   70.00000   35.00000  50.0%     -    0s
     0     2   35.00000    0   57   70.00000   35.00000  50.0%     -    0s
*  164   145              10      65.0000000   35.00000  46.2%  38.0    0s
*  179   157              12      64.0000000   35.00000  45.3%  36.1    0s
*  255   183              14      59.0000000   35.00000  40.7%  31.6    0s
*  456   175              10      50.0000000   41.00000  18.0%  23.3    0s

Explored 736 nodes (13592 simplex iterations) in 0.28 seconds (0.37 work units)
Thread count was 18 (of 36 available processors)

Solution count 5: 50 59 64 ... 70

Optimal solution found (tolerance 1.00e-04)
Best objective 5.000000000000e+01, best bound 5.000000000000e+01, gap 0.0000%

Gurobi 11.0.0 (win64) logging started Thu May 16 09:02:41 2024

Set parameter LogFile to value "./Results/StripPacking-SequencePairRuns/Logs/SBspL-010-StripPacking-10.log"
Set parameter TimeLimit to value 10800
Set parameter Cuts to value 0
Set parameter Presolve to value 1
Set parameter Heuristics to value 0
Set parameter LPWarmStart to value 2
Gurobi Optimizer version 11.0.0 build v11.0.0rc2 (win64 - Windows 10.0 (19045.2))

CPU model: Intel(R) Core(TM) i9-10980XE CPU @ 3.00GHz, instruction set [SSE2|AVX|AVX2|AVX512]
Thread count: 18 physical cores, 36 logical processors, using up to 18 threads

Optimize a model with 1990 rows, 111 columns and 6140 nonzeros
Model fingerprint: 0x71d8855c
Variable types: 21 continuous, 90 integer (90 binary)
Coefficient statistics:
  Matrix range     [1e+00, 1e+04]
  Objective range  [1e+00, 1e+00]
  Bounds range     [1e+00, 1e+04]
  RHS range        [1e+00, 1e+04]

User MIP start did not produce a new incumbent solution

Presolve removed 90 rows and 0 columns
Presolve time: 0.00s
Presolved: 1900 rows, 111 columns, 5870 nonzeros
Variable types: 21 continuous, 90 integer (90 binary)

Root relaxation: objective 3.500000e+01, 250 iterations, 0.02 seconds (0.01 work units)
Another try with MIP start

    Nodes    |    Current Node    |     Objective Bounds      |     Work
 Expl Unexpl |  Obj  Depth IntInf | Incumbent    BestBd   Gap | It/Node Time

H    0     0                      70.0000000   35.00000  50.0%     -    0s
     0     0   35.00000    0   74   70.00000   35.00000  50.0%     -    0s
     0     0   35.00000    0   57   70.00000   35.00000  50.0%     -    0s
     0     2   35.00000    0   57   70.00000   35.00000  50.0%     -    0s
*  164   145              10      65.0000000   35.00000  46.2%  38.0    0s
*  179   157              12      64.0000000   35.00000  45.3%  36.1    0s
*  255   183              14      59.0000000   35.00000  40.7%  31.6    0s
*  456   175              10      50.0000000   41.00000  18.0%  23.3    0s

Explored 736 nodes (13592 simplex iterations) in 0.27 seconds (0.37 work units)
Thread count was 18 (of 36 available processors)

Solution count 5: 50 59 64 ... 70

Optimal solution found (tolerance 1.00e-04)
Best objective 5.000000000000e+01, best bound 5.000000000000e+01, gap 0.0000%

Gurobi 11.0.0 (win64) logging started Thu May 16 09:03:02 2024

Set parameter LogFile to value "./Results/StripPacking-SequencePairRuns/Logs/SBspL-010-StripPacking-10.log"
Set parameter TimeLimit to value 10800
Set parameter Cuts to value 0
Set parameter Presolve to value 1
Set parameter Heuristics to value 0
Set parameter LPWarmStart to value 2
Gurobi Optimizer version 11.0.0 build v11.0.0rc2 (win64 - Windows 10.0 (19045.2))

CPU model: Intel(R) Core(TM) i9-10980XE CPU @ 3.00GHz, instruction set [SSE2|AVX|AVX2|AVX512]
Thread count: 18 physical cores, 36 logical processors, using up to 18 threads

Optimize a model with 1990 rows, 111 columns and 6140 nonzeros
Model fingerprint: 0x71d8855c
Variable types: 21 continuous, 90 integer (90 binary)
Coefficient statistics:
  Matrix range     [1e+00, 1e+04]
  Objective range  [1e+00, 1e+00]
  Bounds range     [1e+00, 1e+04]
  RHS range        [1e+00, 1e+04]

User MIP start did not produce a new incumbent solution

Presolve removed 90 rows and 0 columns
Presolve time: 0.00s
Presolved: 1900 rows, 111 columns, 5870 nonzeros
Variable types: 21 continuous, 90 integer (90 binary)

Root relaxation: objective 3.500000e+01, 250 iterations, 0.02 seconds (0.01 work units)
Another try with MIP start

    Nodes    |    Current Node    |     Objective Bounds      |     Work
 Expl Unexpl |  Obj  Depth IntInf | Incumbent    BestBd   Gap | It/Node Time

H    0     0                      70.0000000   35.00000  50.0%     -    0s
     0     0   35.00000    0   74   70.00000   35.00000  50.0%     -    0s
     0     0   35.00000    0   57   70.00000   35.00000  50.0%     -    0s
     0     2   35.00000    0   57   70.00000   35.00000  50.0%     -    0s
*  164   145              10      65.0000000   35.00000  46.2%  38.0    0s
*  179   157              12      64.0000000   35.00000  45.3%  36.1    0s
*  255   183              14      59.0000000   35.00000  40.7%  31.6    0s
*  456   175              10      50.0000000   41.00000  18.0%  23.3    0s

Explored 736 nodes (13592 simplex iterations) in 0.27 seconds (0.37 work units)
Thread count was 18 (of 36 available processors)

Solution count 5: 50 59 64 ... 70

Optimal solution found (tolerance 1.00e-04)
Best objective 5.000000000000e+01, best bound 5.000000000000e+01, gap 0.0000%

Gurobi 11.0.0 (win64) logging started Thu May 16 09:08:18 2024

Set parameter LogFile to value "./Results/StripPacking-SequencePairRuns/Logs/SBspL-010-StripPacking-10.log"
Set parameter TimeLimit to value 10800
Set parameter Cuts to value 0
Set parameter Presolve to value 1
Set parameter Heuristics to value 0
Set parameter LPWarmStart to value 2
Gurobi Optimizer version 11.0.0 build v11.0.0rc2 (win64 - Windows 10.0 (19045.2))

CPU model: Intel(R) Core(TM) i9-10980XE CPU @ 3.00GHz, instruction set [SSE2|AVX|AVX2|AVX512]
Thread count: 18 physical cores, 36 logical processors, using up to 18 threads

Optimize a model with 790 rows, 111 columns and 2540 nonzeros
Model fingerprint: 0x40364a44
Variable types: 21 continuous, 90 integer (90 binary)
Coefficient statistics:
  Matrix range     [1e+00, 1e+04]
  Objective range  [1e+00, 1e+00]
  Bounds range     [1e+00, 1e+04]
  RHS range        [1e+00, 1e+04]

User MIP start produced solution with objective 50 (0.00s)
Loaded user MIP start with objective 50

Presolve removed 90 rows and 0 columns
Presolve time: 0.00s
Presolved: 700 rows, 111 columns, 2270 nonzeros
Variable types: 21 continuous, 90 integer (90 binary)

Root relaxation: objective 3.500000e+01, 70 iterations, 0.00 seconds (0.00 work units)

    Nodes    |    Current Node    |     Objective Bounds      |     Work
 Expl Unexpl |  Obj  Depth IntInf | Incumbent    BestBd   Gap | It/Node Time

     0     0   35.00000    0    3   50.00000   35.00000  30.0%     -    0s
     0     0   35.00000    0    3   50.00000   35.00000  30.0%     -    0s
     0     2   35.00000    0    3   50.00000   35.00000  30.0%     -    0s
*  303   344              22      46.0000000   35.00000  23.9%   7.8    0s
*  327   344              22      44.0000000   35.00000  20.5%   7.6    0s
*  756   600              22      42.0000000   35.00000  16.7%   6.5    0s
* 1762   783              20      41.0000000   35.00000  14.6%   6.0    0s
* 7134  1264              32      39.0000000   35.00000  10.3%   7.2    0s

Explored 10712 nodes (107098 simplex iterations) in 0.31 seconds (0.33 work units)
Thread count was 18 (of 36 available processors)

Solution count 6: 39 41 42 ... 50

Optimal solution found (tolerance 1.00e-04)
Best objective 3.900000000000e+01, best bound 3.900000000000e+01, gap 0.0000%

Gurobi 11.0.0 (win64) logging started Thu May 16 09:12:39 2024

Set parameter LogFile to value "./Results/StripPacking-SequencePairRuns/Logs/SBspL-010-StripPacking-10.log"
Set parameter TimeLimit to value 10800
Set parameter Cuts to value 0
Set parameter Presolve to value 1
Set parameter Heuristics to value 0
Set parameter LPWarmStart to value 2
Gurobi Optimizer version 11.0.0 build v11.0.0rc2 (win64 - Windows 10.0 (19045.2))

CPU model: Intel(R) Core(TM) i9-10980XE CPU @ 3.00GHz, instruction set [SSE2|AVX|AVX2|AVX512]
Thread count: 18 physical cores, 36 logical processors, using up to 18 threads

Optimize a model with 790 rows, 111 columns and 2540 nonzeros
Model fingerprint: 0x40364a44
Variable types: 21 continuous, 90 integer (90 binary)
Coefficient statistics:
  Matrix range     [1e+00, 1e+04]
  Objective range  [1e+00, 1e+00]
  Bounds range     [1e+00, 1e+04]
  RHS range        [1e+00, 1e+04]

User MIP start produced solution with objective 50 (0.00s)
Loaded user MIP start with objective 50

Presolve removed 90 rows and 0 columns
Presolve time: 0.00s
Presolved: 700 rows, 111 columns, 2270 nonzeros
Variable types: 21 continuous, 90 integer (90 binary)

Root relaxation: objective 3.500000e+01, 70 iterations, 0.00 seconds (0.00 work units)

    Nodes    |    Current Node    |     Objective Bounds      |     Work
 Expl Unexpl |  Obj  Depth IntInf | Incumbent    BestBd   Gap | It/Node Time

     0     0   35.00000    0    3   50.00000   35.00000  30.0%     -    0s
     0     0   35.00000    0    3   50.00000   35.00000  30.0%     -    0s
     0     2   35.00000    0    3   50.00000   35.00000  30.0%     -    0s
*  303   344              22      46.0000000   35.00000  23.9%   7.8    0s
*  327   344              22      44.0000000   35.00000  20.5%   7.6    0s
*  756   600              22      42.0000000   35.00000  16.7%   6.5    0s
* 1762   783              20      41.0000000   35.00000  14.6%   6.0    0s
* 7134  1264              32      39.0000000   35.00000  10.3%   7.2    0s

Explored 10712 nodes (107098 simplex iterations) in 0.33 seconds (0.33 work units)
Thread count was 18 (of 36 available processors)

Solution count 6: 39 41 42 ... 50

Optimal solution found (tolerance 1.00e-04)
Best objective 3.900000000000e+01, best bound 3.900000000000e+01, gap 0.0000%

Gurobi 11.0.0 (win64) logging started Thu May 16 09:12:50 2024

Set parameter LogFile to value "./Results/StripPacking-SequencePairRuns/Logs/SBspL-010-StripPacking-10.log"
Set parameter TimeLimit to value 10800
Set parameter Cuts to value 0
Set parameter Presolve to value 1
Set parameter Heuristics to value 0
Set parameter LPWarmStart to value 2
Gurobi Optimizer version 11.0.0 build v11.0.0rc2 (win64 - Windows 10.0 (19045.2))

CPU model: Intel(R) Core(TM) i9-10980XE CPU @ 3.00GHz, instruction set [SSE2|AVX|AVX2|AVX512]
Thread count: 18 physical cores, 36 logical processors, using up to 18 threads

Optimize a model with 790 rows, 111 columns and 2540 nonzeros
Model fingerprint: 0x40364a44
Variable types: 21 continuous, 90 integer (90 binary)
Coefficient statistics:
  Matrix range     [1e+00, 1e+04]
  Objective range  [1e+00, 1e+00]
  Bounds range     [1e+00, 1e+04]
  RHS range        [1e+00, 1e+04]

User MIP start produced solution with objective 50 (0.02s)
Loaded user MIP start with objective 50

Presolve removed 90 rows and 0 columns
Presolve time: 0.00s
Presolved: 700 rows, 111 columns, 2270 nonzeros
Variable types: 21 continuous, 90 integer (90 binary)

Root relaxation: objective 3.500000e+01, 70 iterations, 0.00 seconds (0.00 work units)

    Nodes    |    Current Node    |     Objective Bounds      |     Work
 Expl Unexpl |  Obj  Depth IntInf | Incumbent    BestBd   Gap | It/Node Time

     0     0   35.00000    0    3   50.00000   35.00000  30.0%     -    0s
     0     0   35.00000    0    3   50.00000   35.00000  30.0%     -    0s
     0     2   35.00000    0    3   50.00000   35.00000  30.0%     -    0s
*  303   344              22      46.0000000   35.00000  23.9%   7.8    0s
*  327   344              22      44.0000000   35.00000  20.5%   7.6    0s
*  756   600              22      42.0000000   35.00000  16.7%   6.5    0s
* 1762   783              20      41.0000000   35.00000  14.6%   6.0    0s
* 7134  1264              32      39.0000000   35.00000  10.3%   7.2    0s

Explored 10712 nodes (107098 simplex iterations) in 0.33 seconds (0.33 work units)
Thread count was 18 (of 36 available processors)

Solution count 6: 39 41 42 ... 50

Optimal solution found (tolerance 1.00e-04)
Best objective 3.900000000000e+01, best bound 3.900000000000e+01, gap 0.0000%

Gurobi 11.0.0 (win64) logging started Thu May 16 09:13:07 2024

Set parameter LogFile to value "./Results/StripPacking-SequencePairRuns/Logs/SBspL-010-StripPacking-10.log"
Set parameter TimeLimit to value 10800
Set parameter Cuts to value 0
Set parameter Presolve to value 1
Set parameter Heuristics to value 0
Set parameter LPWarmStart to value 2
Gurobi Optimizer version 11.0.0 build v11.0.0rc2 (win64 - Windows 10.0 (19045.2))

CPU model: Intel(R) Core(TM) i9-10980XE CPU @ 3.00GHz, instruction set [SSE2|AVX|AVX2|AVX512]
Thread count: 18 physical cores, 36 logical processors, using up to 18 threads

Optimize a model with 790 rows, 111 columns and 2540 nonzeros
Model fingerprint: 0x40364a44
Variable types: 21 continuous, 90 integer (90 binary)
Coefficient statistics:
  Matrix range     [1e+00, 1e+04]
  Objective range  [1e+00, 1e+00]
  Bounds range     [1e+00, 1e+04]
  RHS range        [1e+00, 1e+04]

User MIP start produced solution with objective 50 (0.00s)
Loaded user MIP start with objective 50

Presolve removed 90 rows and 0 columns
Presolve time: 0.00s
Presolved: 700 rows, 111 columns, 2270 nonzeros
Variable types: 21 continuous, 90 integer (90 binary)

Root relaxation: objective 3.500000e+01, 70 iterations, 0.02 seconds (0.00 work units)

    Nodes    |    Current Node    |     Objective Bounds      |     Work
 Expl Unexpl |  Obj  Depth IntInf | Incumbent    BestBd   Gap | It/Node Time

     0     0   35.00000    0    3   50.00000   35.00000  30.0%     -    0s
     0     0   35.00000    0    3   50.00000   35.00000  30.0%     -    0s
     0     2   35.00000    0    3   50.00000   35.00000  30.0%     -    0s
*  303   344              22      46.0000000   35.00000  23.9%   7.8    0s
*  327   344              22      44.0000000   35.00000  20.5%   7.6    0s
*  756   600              22      42.0000000   35.00000  16.7%   6.5    0s
* 1762   783              20      41.0000000   35.00000  14.6%   6.0    0s
* 7134  1264              32      39.0000000   35.00000  10.3%   7.2    0s

Explored 10712 nodes (107098 simplex iterations) in 0.31 seconds (0.33 work units)
Thread count was 18 (of 36 available processors)

Solution count 6: 39 41 42 ... 50

Optimal solution found (tolerance 1.00e-04)
Best objective 3.900000000000e+01, best bound 3.900000000000e+01, gap 0.0000%

Gurobi 11.0.0 (win64) logging started Thu May 16 09:41:42 2024

Set parameter LogFile to value "./Results/StripPacking-SequencePairRuns/Logs/SBspL-010-StripPacking-10.log"
Set parameter TimeLimit to value 10800
Set parameter Cuts to value 0
Set parameter Presolve to value 1
Set parameter Heuristics to value 0
Set parameter LPWarmStart to value 2
Gurobi Optimizer version 11.0.0 build v11.0.0rc2 (win64 - Windows 10.0 (19045.2))

CPU model: Intel(R) Core(TM) i9-10980XE CPU @ 3.00GHz, instruction set [SSE2|AVX|AVX2|AVX512]
Thread count: 18 physical cores, 36 logical processors, using up to 18 threads

Optimize a model with 790 rows, 111 columns and 2540 nonzeros
Model fingerprint: 0x40364a44
Variable types: 21 continuous, 90 integer (90 binary)
Coefficient statistics:
  Matrix range     [1e+00, 1e+04]
  Objective range  [1e+00, 1e+00]
  Bounds range     [1e+00, 1e+04]
  RHS range        [1e+00, 1e+04]

User MIP start produced solution with objective 50 (0.00s)
Loaded user MIP start with objective 50

Presolve removed 90 rows and 0 columns
Presolve time: 0.00s
Presolved: 700 rows, 111 columns, 2270 nonzeros
Variable types: 21 continuous, 90 integer (90 binary)

Root relaxation: objective 3.500000e+01, 70 iterations, 0.00 seconds (0.00 work units)

    Nodes    |    Current Node    |     Objective Bounds      |     Work
 Expl Unexpl |  Obj  Depth IntInf | Incumbent    BestBd   Gap | It/Node Time

     0     0   35.00000    0    3   50.00000   35.00000  30.0%     -    0s
     0     0   35.00000    0    3   50.00000   35.00000  30.0%     -    0s
     0     2   35.00000    0    3   50.00000   35.00000  30.0%     -    0s
*  303   344              22      46.0000000   35.00000  23.9%   7.8    0s
*  327   344              22      44.0000000   35.00000  20.5%   7.6    0s
*  756   600              22      42.0000000   35.00000  16.7%   6.5    0s
* 1762   783              20      41.0000000   35.00000  14.6%   6.0    0s
* 7134  1264              32      39.0000000   35.00000  10.3%   7.2    0s

Explored 10712 nodes (107098 simplex iterations) in 0.31 seconds (0.33 work units)
Thread count was 18 (of 36 available processors)

Solution count 6: 39 41 42 ... 50

Optimal solution found (tolerance 1.00e-04)
Best objective 3.900000000000e+01, best bound 3.900000000000e+01, gap 0.0000%

Gurobi 11.0.0 (win64) logging started Thu May 16 09:54:10 2024

Set parameter LogFile to value "./Results/StripPacking-SequencePairRuns/Logs/SBspL-010-StripPacking-10.log"
Set parameter TimeLimit to value 10800
Set parameter Cuts to value 0
Set parameter Presolve to value 1
Set parameter Heuristics to value 0
Set parameter LPWarmStart to value 2
Gurobi Optimizer version 11.0.0 build v11.0.0rc2 (win64 - Windows 10.0 (19045.2))

CPU model: Intel(R) Core(TM) i9-10980XE CPU @ 3.00GHz, instruction set [SSE2|AVX|AVX2|AVX512]
Thread count: 18 physical cores, 36 logical processors, using up to 18 threads

Optimize a model with 790 rows, 111 columns and 2540 nonzeros
Model fingerprint: 0x40364a44
Variable types: 21 continuous, 90 integer (90 binary)
Coefficient statistics:
  Matrix range     [1e+00, 1e+04]
  Objective range  [1e+00, 1e+00]
  Bounds range     [1e+00, 1e+04]
  RHS range        [1e+00, 1e+04]

User MIP start produced solution with objective 50 (0.00s)
Loaded user MIP start with objective 50

Presolve removed 90 rows and 0 columns
Presolve time: 0.02s
Presolved: 700 rows, 111 columns, 2270 nonzeros
Variable types: 21 continuous, 90 integer (90 binary)

Root relaxation: objective 3.500000e+01, 70 iterations, 0.00 seconds (0.00 work units)

    Nodes    |    Current Node    |     Objective Bounds      |     Work
 Expl Unexpl |  Obj  Depth IntInf | Incumbent    BestBd   Gap | It/Node Time

     0     0   35.00000    0    3   50.00000   35.00000  30.0%     -    0s
     0     0   35.00000    0    3   50.00000   35.00000  30.0%     -    0s
     0     2   35.00000    0    3   50.00000   35.00000  30.0%     -    0s
*  303   344              22      46.0000000   35.00000  23.9%   7.8    0s
*  327   344              22      44.0000000   35.00000  20.5%   7.6    0s
*  756   600              22      42.0000000   35.00000  16.7%   6.5    0s
* 1762   783              20      41.0000000   35.00000  14.6%   6.0    0s
* 7134  1264              32      39.0000000   35.00000  10.3%   7.2    0s

Explored 10712 nodes (107098 simplex iterations) in 0.33 seconds (0.33 work units)
Thread count was 18 (of 36 available processors)

Solution count 6: 39 41 42 ... 50

Optimal solution found (tolerance 1.00e-04)
Best objective 3.900000000000e+01, best bound 3.900000000000e+01, gap 0.0000%

Gurobi 11.0.0 (win64) logging started Fri May 17 19:13:35 2024

Set parameter LogFile to value "./Results/StripPacking-SequencePairRuns/Logs/SBspL-010-StripPacking-10.log"
Set parameter TimeLimit to value 10800
Set parameter Cuts to value 0
Set parameter Presolve to value 1
Set parameter Heuristics to value 0
Set parameter LPWarmStart to value 2
Gurobi Optimizer version 11.0.0 build v11.0.0rc2 (win64 - Windows 10.0 (19045.2))

CPU model: Intel(R) Core(TM) i9-10980XE CPU @ 3.00GHz, instruction set [SSE2|AVX|AVX2|AVX512]
Thread count: 18 physical cores, 36 logical processors, using up to 18 threads

Optimize a model with 1030 rows, 111 columns and 3260 nonzeros
Model fingerprint: 0x173486f9
Variable types: 21 continuous, 90 integer (90 binary)
Coefficient statistics:
  Matrix range     [1e+00, 1e+04]
  Objective range  [1e+00, 1e+00]
  Bounds range     [1e+00, 1e+04]
  RHS range        [1e+00, 1e+04]

User MIP start produced solution with objective 50 (0.00s)
Loaded user MIP start with objective 50

Presolve removed 90 rows and 0 columns
Presolve time: 0.00s
Presolved: 940 rows, 111 columns, 2990 nonzeros
Variable types: 21 continuous, 90 integer (90 binary)

Root relaxation: objective 3.500000e+01, 76 iterations, 0.01 seconds (0.00 work units)

    Nodes    |    Current Node    |     Objective Bounds      |     Work
 Expl Unexpl |  Obj  Depth IntInf | Incumbent    BestBd   Gap | It/Node Time

     0     0   35.00000    0    4   50.00000   35.00000  30.0%     -    0s
     0     0   35.00000    0    4   50.00000   35.00000  30.0%     -    0s
     0     2   35.00000    0    4   50.00000   35.00000  30.0%     -    0s
*  307   465              21      45.0000000   35.00000  22.2%  12.3    0s
*  309   465              22      42.0000000   35.00000  16.7%  12.3    0s
* 1613   695              27      41.0000000   35.00000  14.6%   9.5    0s
* 9500  1308              31      39.0000000   35.00000  10.3%   8.9    0s

Explored 10408 nodes (99819 simplex iterations) in 0.36 seconds (0.36 work units)
Thread count was 18 (of 36 available processors)

Solution count 5: 39 41 42 ... 50

Optimal solution found (tolerance 1.00e-04)
Best objective 3.900000000000e+01, best bound 3.900000000000e+01, gap 0.0000%

Gurobi 11.0.0 (win64) logging started Fri May 17 19:14:39 2024

Set parameter LogFile to value "./Results/StripPacking-SequencePairRuns/Logs/SBspL-010-StripPacking-10.log"
Set parameter TimeLimit to value 10800
Set parameter Cuts to value 0
Set parameter Presolve to value 1
Set parameter Heuristics to value 0
Set parameter LPWarmStart to value 2
Gurobi Optimizer version 11.0.0 build v11.0.0rc2 (win64 - Windows 10.0 (19045.2))

CPU model: Intel(R) Core(TM) i9-10980XE CPU @ 3.00GHz, instruction set [SSE2|AVX|AVX2|AVX512]
Thread count: 18 physical cores, 36 logical processors, using up to 18 threads

Optimize a model with 1030 rows, 111 columns and 3260 nonzeros
Model fingerprint: 0x173486f9
Variable types: 21 continuous, 90 integer (90 binary)
Coefficient statistics:
  Matrix range     [1e+00, 1e+04]
  Objective range  [1e+00, 1e+00]
  Bounds range     [1e+00, 1e+04]
  RHS range        [1e+00, 1e+04]

User MIP start produced solution with objective 50 (0.00s)
Loaded user MIP start with objective 50

Presolve removed 90 rows and 0 columns
Presolve time: 0.00s
Presolved: 940 rows, 111 columns, 2990 nonzeros
Variable types: 21 continuous, 90 integer (90 binary)

Root relaxation: objective 3.500000e+01, 76 iterations, 0.00 seconds (0.00 work units)

    Nodes    |    Current Node    |     Objective Bounds      |     Work
 Expl Unexpl |  Obj  Depth IntInf | Incumbent    BestBd   Gap | It/Node Time

     0     0   35.00000    0    4   50.00000   35.00000  30.0%     -    0s
     0     0   35.00000    0    4   50.00000   35.00000  30.0%     -    0s
     0     2   35.00000    0    4   50.00000   35.00000  30.0%     -    0s
*  307   465              21      45.0000000   35.00000  22.2%  12.3    0s
*  309   465              22      42.0000000   35.00000  16.7%  12.3    0s
* 1613   695              27      41.0000000   35.00000  14.6%   9.5    0s
* 9500  1308              31      39.0000000   35.00000  10.3%   8.9    0s

Explored 10408 nodes (99819 simplex iterations) in 0.39 seconds (0.36 work units)
Thread count was 18 (of 36 available processors)

Solution count 5: 39 41 42 ... 50

Optimal solution found (tolerance 1.00e-04)
Best objective 3.900000000000e+01, best bound 3.900000000000e+01, gap 0.0000%
